 100 

  34  47  32  39  34  37   5  43  35  24  49  30  27   3  19  31  11  36  27  10  35  13  14  48  15  44  12  14  29  43  29  36  46  25   4   1  48  31  42   3  41  34   7  16  45   6  11  34   5  20  23  44  47  49  13   4  17  49  46  45  13  12  29  34  39  17  36   3   3  17   8  33  50  27  35  31  17  14  39  32  22  11  14  14  15  24  43  15   2  31   8  13  46  36   4  40  38  10  17  18

 140

  24   7   5   8  22  23  18   8   1  24  11   6   3  16  21  15  14  13  10  12   2   4  10  24  19  22  17  12  16   8   9   6  24   9  19  23  14   6  20  22  17  18  23  14  23  23  14  13  21  24   7   8   7  24   2  20   5  18  10   7   3   1   2  19  13  25  16  16   1  20  20   6   3   9   1  19  19  10   8   8  22   6  16  15  13   3  17   2  13   1  17   3  16   5  13   1  22  13  12  18

